# Solution for model GasLib-40
# Objective value = 5.3125868188985649e+01
loadshed[innode_1] 0
loadshed[innode_2] 0
loadshed[innode_3] 0
loadshed[innode_4] 0
loadshed[innode_5] 0
loadshed[innode_6] 0
loadshed[innode_7] 0
loadshed[innode_8] 0
loadshed[source_1] -1.5965176099381040e-01
loadshed[source_2] 1.5042985765829420e-01
loadshed[source_3] 3.4526956506222217e-01
loadshed[sink_1] 3.8360343206567360e-01
loadshed[sink_2] 0
loadshed[sink_3] 0
loadshed[sink_4] 0
loadshed[sink_5] 0
loadshed[sink_6] 0
loadshed[sink_7] 0
loadshed[sink_8] 0
loadshed[sink_9] 0
loadshed[sink_10] 0
loadshed[sink_11] 0
loadshed[sink_12] 1
loadshed[sink_13] 0
loadshed[sink_14] 0
loadshed[sink_15] 0
loadshed[sink_16] 0
loadshed[sink_17] 0
loadshed[sink_18] 0
loadshed[sink_19] 0
loadshed[sink_20] 0
loadshed[sink_21] 1
loadshed[sink_22] 0
loadshed[sink_23] 0
loadshed[sink_24] 8.6485729796147381e-01
loadshed[sink_25] 0
loadshed[sink_26] 0
loadshed[sink_27] 0
loadshed[sink_28] 0
loadshed[sink_29] 0
flow[source_1,sink_3] 1.8332966902100065e+02
flow[innode_1,sink_16] 1.6354166666666970e+01
flow[innode_6,sink_13] 1.0972650337801447e+01
flow[sink_13,sink_14] -5.3815163288652208e+00
flow[sink_14,sink_10] -2.1735682995531889e+01
flow[sink_25,sink_26] 1.1229427593969558e+02
flow[sink_26,sink_9] 0
flow[sink_9,sink_18] -1.6354166666669244e+01
flow[sink_26,sink_4] 9.5940109273028909e+01
flow[sink_4,sink_20] -1.4459284557302052e+01
flow[sink_18,sink_6] -3.2708333333335915e+01
flow[sink_25,innode_8] -1.5062133568766427e+02
flow[sink_6,sink_7] -7.5497318871428519e+01
flow[sink_6,sink_22] 2.6434818871425968e+01
flow[sink_7,sink_24] 2.21014627292173
flow[sink_22,sink_1] 1.0080652204759298e+01
flow[sink_24,sink_21] 0
flow[sink_21,sink_12] 0
flow[sink_7,sink_5] -9.4061631811016923e+01
flow[sink_5,sink_17] -1.1041579847768359e+02
flow[sink_17,sink_4] -9.4045227163664308e+01
flow[sink_17,sink_8] -3.2724737980685958e+01
flow[sink_3,sink_23] 16.3541666666697
flow[sink_8,sink_20] -4.9078904647352630e+01
flow[sink_25,sink_20] 7.9892355871321371e+01
flow[sink_25,sink_15] -6.8892113127821929e+01
flow[sink_15,sink_29] -85.2462797944886
flow[sink_29,sink_28] 1.6354166666667879e+01
flow[sink_29,sink_2] 1.6354166666684250e+01
flow[sink_2,sink_15] 0
flow[sink_29,innode_7] -1.3430877979450648e+02
flow[innode_4,sink_19] 8.7152349662198858e+01
flow[sink_19,innode_3] 3.4549214462851751e+01
flow[innode_4,innode_5] 1.6354166666679703e+01
flow[sink_27,innode_5] -1.6354166666679703e+01
flow[sink_27,sink_19] 0
flow[sink_10,sink_11] 3.2708333333333641e+01
flow[sink_10,innode_2] -3.6248968532680443e+01
flow[sink_10,innode_3] -3.4549214462851751e+01
flow[innode_6,sink_25] -1.0972650337801447e+01
flow[sink_11,innode_1] 1.6354166666666970e+01
flow[sink_19,innode_2] 3.6248968532680443e+01
flow[source_3,innode_4] 1.0350651632887856e+02
flow[source_2,innode_7] 1.3430877979450648e+02
flow[sink_3,innode_8] 1.5062133568766427e+02
pressure[innode_1] 7.5414877242032688e+01
pressure[innode_2] 7.7482486249731721e+01
pressure[innode_3] 7.7405980926577868e+01
pressure[innode_4] 81.01325
pressure[innode_5] 8.1002000741808772e+01
pressure[innode_6] 7.4589370969757638e+01
pressure[innode_7] 81.01325
pressure[innode_8] 8.0400448950934830e+01
pressure[source_1] 81.01325
pressure[source_2] 81.01325
pressure[source_3] 81.01325
pressure[sink_1] 1.0132500000000002e+00
pressure[sink_2] 7.7006746796073642e+01
pressure[sink_3] 8.0400448950934830e+01
pressure[sink_4] 5.4482477265035584e+01
pressure[sink_5] 4.2663199909118546e+01
pressure[sink_6] 2.5073045722304137e+00
pressure[sink_7] 3.5437028019638728e+00
pressure[sink_8] 52.1231681681811
pressure[sink_9] 1.0421521929241759e+00
pressure[sink_10] 7.5566578549636233e+01
pressure[sink_11] 7.5414877242032688e+01
pressure[sink_12] 1.01325
pressure[sink_13] 7.4528880582145561e+01
pressure[sink_14] 74.5385112640199
pressure[sink_15] 7.4923564848406826e+01
pressure[sink_16] 7.4393227407215008e+01
pressure[sink_17] 5.0888378787391140e+01
pressure[sink_18] 1.6338946867239303e+00
pressure[sink_19] 7.7482486249731721e+01
pressure[sink_20] 5.5543277612163109e+01
pressure[sink_21] 1.01325
pressure[sink_22] 1.6689536484220584e+00
pressure[sink_23] 8.0235730939275044e+01
pressure[sink_24] 1.01325
pressure[sink_25] 7.4589370969757638e+01
pressure[sink_26] 6.6680551062096015e+01
pressure[sink_27] 8.0866291377726043e+01
pressure[sink_28] 7.7125734020920120e+01
pressure[sink_29] 77.4210162945373
interdiction[source_1,sink_3] 0
interdiction[innode_1,sink_16] 0
interdiction[innode_6,sink_13] 0
interdiction[sink_13,sink_14] 0
interdiction[sink_14,sink_10] 0
interdiction[sink_25,sink_26] 0
interdiction[sink_26,sink_9] 1
interdiction[sink_9,sink_18] 0
interdiction[sink_26,sink_4] 0
interdiction[sink_4,sink_20] 0
interdiction[sink_18,sink_6] 0
interdiction[sink_25,innode_8] 0
interdiction[sink_6,sink_7] 0
interdiction[sink_6,sink_22] 0
interdiction[sink_7,sink_24] 0
interdiction[sink_22,sink_1] 0
interdiction[sink_24,sink_21] 0
interdiction[sink_21,sink_12] 0
interdiction[sink_7,sink_5] 0
interdiction[sink_5,sink_17] 0
interdiction[sink_17,sink_4] 0
interdiction[sink_17,sink_8] 0
interdiction[sink_3,sink_23] 0
interdiction[sink_8,sink_20] 0
interdiction[sink_25,sink_20] 0
interdiction[sink_25,sink_15] 0
interdiction[sink_15,sink_29] 0
interdiction[sink_29,sink_28] 0
interdiction[sink_29,sink_2] 0
interdiction[sink_2,sink_15] 1
interdiction[sink_29,innode_7] 0
interdiction[innode_4,sink_19] 0
interdiction[sink_19,innode_3] 0
interdiction[innode_4,innode_5] 0
interdiction[sink_27,innode_5] 0
interdiction[sink_27,sink_19] 1
interdiction[sink_10,sink_11] 0
interdiction[sink_10,innode_2] 0
interdiction[sink_10,innode_3] 0
interdiction[innode_6,sink_25] 0
interdiction[sink_11,innode_1] 0
interdiction[sink_19,innode_2] 0
interdiction[source_3,innode_4] 0
interdiction[source_2,innode_7] 0
interdiction[sink_3,innode_8] 0
WCcheckFlow[source_1,sink_3] 39
WCcheckFlow[innode_1,sink_16] 1
WCcheckFlow[innode_6,sink_13] 13
WCcheckFlow[sink_13,sink_14] 12
WCcheckFlow[sink_14,sink_10] 11
WCcheckFlow[sink_25,sink_26] 15
WCcheckFlow[sink_26,sink_9] 0
WCcheckFlow[sink_9,sink_18] -1
WCcheckFlow[sink_26,sink_4] 14
WCcheckFlow[sink_4,sink_20] 1
WCcheckFlow[sink_18,sink_6] -2
WCcheckFlow[sink_25,innode_8] -36
WCcheckFlow[sink_6,sink_7] -5
WCcheckFlow[sink_6,sink_22] 2
WCcheckFlow[sink_7,sink_24] 3
WCcheckFlow[sink_22,sink_1] 1
WCcheckFlow[sink_24,sink_21] 2
WCcheckFlow[sink_21,sink_12] 1
WCcheckFlow[sink_7,sink_5] -9
WCcheckFlow[sink_5,sink_17] -10
WCcheckFlow[sink_17,sink_4] -12
WCcheckFlow[sink_17,sink_8] 1
WCcheckFlow[sink_3,sink_23] 1
WCcheckFlow[sink_8,sink_20] 0
WCcheckFlow[sink_25,sink_20] 0
WCcheckFlow[sink_25,sink_15] 6
WCcheckFlow[sink_15,sink_29] 5
WCcheckFlow[sink_29,sink_28] 1
WCcheckFlow[sink_29,sink_2] 1
WCcheckFlow[sink_2,sink_15] 0
WCcheckFlow[sink_29,innode_7] 2
WCcheckFlow[innode_4,sink_19] -4
WCcheckFlow[sink_19,innode_3] -5
WCcheckFlow[innode_4,innode_5] 2
WCcheckFlow[sink_27,innode_5] -1
WCcheckFlow[sink_27,sink_19] 0
WCcheckFlow[sink_10,sink_11] 3
WCcheckFlow[sink_10,innode_2] 1
WCcheckFlow[sink_10,innode_3] 6
WCcheckFlow[innode_6,sink_25] -14
WCcheckFlow[sink_11,innode_1] 2
WCcheckFlow[sink_19,innode_2] 0
WCcheckFlow[source_3,innode_4] -1
WCcheckFlow[source_2,innode_7] -1
WCcheckFlow[sink_3,innode_8] 37
